treewidth/data/HeawoodGraph.gr
p tw 14 21
1 2
1 10
1 6
2 7
2 3
7 8
7 12
8 9
8 5
9 10
9 14
10 11
11 12
11 4
12 13
13 14
13 6
14 3
3 4
4 5
5 6
