treewidth/data/HeawoodGraph.td
c width = 5, time = 0.127957
s td 9 6 14
b 1 6 12 13 14
b 2 4 6 7 10 12 14
b 3 2 4 6 7 10 14
b 4 1 2 6 10
b 5 2 3 4 14
b 6 4 6 7 8 10 14
b 7 4 5 6 8
b 8 8 9 10 14
b 9 4 10 11 12
3 4
3 5
2 3
6 7
6 8
2 6
2 9
1 2
